NAME          
ROWS
 N  OBJ
 L  c1
 L  c2
 L  c3
 L  c4
COLUMNS
    MARKER    'MARKER'                 'INTORG'
    x[1]      c1        442
    x[1]      c2        764
    x[1]      c3        931
    x[1]      c4        39
    x[1]      OBJ       -912
    x[2]      c1        143
    x[2]      c2        233
    x[2]      c3        803
    x[2]      c4        937
    x[2]      OBJ       -989
    x[3]      c1        540
    x[3]      c2        89
    x[3]      c3        165
    x[3]      c4        934
    x[3]      OBJ       -141
    x[4]      c1        336
    x[4]      c2        688
    x[4]      c3        724
    x[4]      c4        366
    x[4]      OBJ       -679
    x[5]      c1        658
    x[5]      c2        202
    x[5]      c3        640
    x[5]      c4        287
    x[5]      OBJ       -31
    x[6]      c1        607
    x[6]      c2        878
    x[6]      c3        380
    x[6]      c4        858
    x[6]      OBJ       -989
    x[7]      c1        978
    x[7]      c2        944
    x[7]      c3        864
    x[7]      c4        304
    x[7]      OBJ       -562
    x[8]      c1        914
    x[8]      c2        398
    x[8]      c3        740
    x[8]      c4        935
    x[8]      OBJ       -892
    x[9]      c1        169
    x[9]      c2        585
    x[9]      c3        575
    x[9]      c4        570
    x[9]      OBJ       -39
    x[10]     c1        610
    x[10]     c2        691
    x[10]     c3        587
    x[10]     c4        119
    x[10]     OBJ       -137
    x[11]     c1        342
    x[11]     c2        326
    x[11]     c3        667
    x[11]     c4        887
    x[11]     OBJ       -596
    x[12]     c1        294
    x[12]     c2        473
    x[12]     c3        206
    x[12]     c4        739
    x[12]     OBJ       -52
    x[13]     c1        991
    x[13]     c2        618
    x[13]     c3        585
    x[13]     c4        704
    x[13]     OBJ       -714
    x[14]     c1        185
    x[14]     c2        9
    x[14]     c3        471
    x[14]     c4        962
    x[14]     OBJ       -694
    x[15]     c1        117
    x[15]     c2        503
    x[15]     c3        761
    x[15]     c4        12
    x[15]     OBJ       -107
    x[16]     c1        5
    x[16]     c2        261
    x[16]     c3        642
    x[16]     c4        816
    x[16]     OBJ       -601
    x[17]     c1        189
    x[17]     c2        581
    x[17]     c3        282
    x[17]     c4        54
    x[17]     OBJ       -9
    x[18]     c1        726
    x[18]     c2        586
    x[18]     c3        97
    x[18]     c4        866
    x[18]     OBJ       -426
    x[19]     c1        504
    x[19]     c2        461
    x[19]     c3        894
    x[19]     c4        698
    x[19]     OBJ       -450
    x[20]     c1        899
    x[20]     c2        469
    x[20]     c3        96
    x[20]     c4        917
    x[20]     OBJ       -46
RHS
    rhs       c1        4824
    rhs       c2        4880
    rhs       c3        5555
    rhs       c4        6002
RANGES
BOUNDS
 BV bounds    x[1]
 BV bounds    x[2]
 BV bounds    x[3]
 BV bounds    x[4]
 BV bounds    x[5]
 BV bounds    x[6]
 BV bounds    x[7]
 BV bounds    x[8]
 BV bounds    x[9]
 BV bounds    x[10]
 BV bounds    x[11]
 BV bounds    x[12]
 BV bounds    x[13]
 BV bounds    x[14]
 BV bounds    x[15]
 BV bounds    x[16]
 BV bounds    x[17]
 BV bounds    x[18]
 BV bounds    x[19]
 BV bounds    x[20]
ENDATA
